



8 8
0 8 7 18 5 19 6 2 3 16 2 15 1 1 4 8
4 18 5 9 7 13 3 15 6 10 2 12 1 15 0 15
4 1 6 17 7 12 3 3 1 11 2 18 0 2 5 9
2 12 7 16 1 12 5 2 0 12 6 6 4 8 3 17
0 10 3 16 2 18 4 6 6 3 1 17 5 11 7 17
6 5 3 18 4 14 5 9 2 6 0 10 7 5 1 19
7 8 6 9 5 8 2 5 3 9 4 7 1 9 0 15
6 18 0 4 2 16 5 3 4 6 7 6 3 19 1 6
